proyfinal/src/viki/013/andrea/andrea-localstore/experimentInOfficeAgust.take6/worker_9/0e380331-23c0-4dc2-82aa-d9946a880f7c.als.cnf.out
Reading from standard input... Use '--help' for help.
============================[ Problem Statistics ]=============================
|                                                                             |
|  Number of variables:         87638                                         |
|  Number of clauses:          161767                                         |
|  Parse time:                   0.04 s                                       |
|                                                                             |
============================[ Search Statistics ]==============================
| Conflicts |          ORIGINAL         |          LEARNT          | Progress |
|           |    Vars  Clauses Literals |    Limit  Clauses Lit/Cl |          |
===============================================================================
|       100 |   63263   108354   270681 |    39729      100     22 | 27.813 % |
|       250 |   63262   108310   270591 |    43702      249     22 | 27.814 % |
|       475 |   63262   108310   270591 |    48073      474     32 | 27.814 % |
|       812 |   53360    78585   197439 |    52880      626     50 | 39.113 % |
|      1318 |   53275    78160   196384 |    58168     1131     45 | 39.210 % |
|      2077 |   52812    76557   192117 |    63985     1805     43 | 39.738 % |
|      3216 |   52572    75584   189804 |    70383     2903     42 | 40.012 % |
|      4924 |   52572    75584   189804 |    77422     4611     42 | 40.012 % |
|      7486 |   52561    75540   189696 |    85164     5752     45 | 40.025 % |
|     11330 |   52511    75335   189216 |    93680     9076     47 | 40.082 % |
|     17096 |   52348    74622   187626 |   103048    12722     48 | 40.268 % |
===============================================================================
restarts              : 72
conflicts             : 20640          (9300 /sec)
decisions             : 59877          (0.00 % random) (26979 /sec)
propagations          : 23939002       (10786186 /sec)
conflict literals     : 991242         (45.14 % deleted)
Memory used           : 33.60 MB
CPU time              : 2.21941 s

UNSATISFIABLE
